# Solution for model Master problem
# Objective value = 3.4559999995966787e+03
X_0_6 0
X_1_6 0
X_2_6 0
X_3_6 0
X_4_6 1
X_5_6 1
X_6_6 0
X_0_8 0
X_1_8 0
X_2_8 0
X_3_8 0
X_4_8 0
X_5_8 0
X_6_8 0
X_0_10 0
X_1_10 0
X_2_10 1
X_3_10 0
X_4_10 0
X_5_10 0
X_6_10 0
X_0_14 0
X_1_14 0
X_2_14 0
X_3_14 1
X_4_14 0
X_5_14 0
X_6_14 0
X_0_16 0
X_1_16 0
X_2_16 0
X_3_16 0
X_4_16 0
X_5_16 0
X_6_16 0
X_0_18 1
X_1_18 0
X_2_18 0
X_3_18 0
X_4_18 0
X_5_18 0
X_6_18 0
X_0_22 0
X_1_22 1
X_2_22 0
X_3_22 0
X_4_22 0
X_5_22 0
X_6_22 0
X_0_24 0
X_1_24 0
X_2_24 0
X_3_24 0
X_4_24 0
X_5_24 0
X_6_24 0
X_0_28 0
X_1_28 0
X_2_28 0
X_3_28 0
X_4_28 0
X_5_28 0
X_6_28 0
X_0_30 0
X_1_30 0
X_2_30 0
X_3_30 0
X_4_30 0
X_5_30 0
X_6_30 0
theta_0_0_0 19
theta_0_0_1 15
theta_0_0_2 11
theta_0_0_3 7
theta_1_0_0 2.2999999990397189e+01
theta_1_0_1 15
theta_1_0_2 11
theta_1_0_3 7
Z_0_0_0_1_0 4.8000000057616866e+01
ZP_0_0_0_1_0 5.7616865944964957e-08
ZN_0_0_0_1_0 48
Z_1_0_0_1_0 4.8000000057616859e+01
ZP_1_0_0_1_0 5.76168588395376e-08
ZN_1_0_0_1_0 48
Z_0_1_0_1_0 24
ZP_0_1_0_1_0 0
ZN_0_1_0_1_0 24
Z_1_1_0_1_0 24
ZP_1_1_0_1_0 0
ZN_1_1_0_1_0 24
Z_0_0_0_0_1 2.3999999942383219e+01
ZP_0_0_0_0_1 2.3999999942383219e+01
ZN_0_0_0_0_1 0
Z_1_0_0_0_1 4.7999999942383141e+01
ZP_1_0_0_0_1 4.7999999942383141e+01
ZN_1_0_0_0_1 0
Z_0_1_0_0_1 2.3999999942383219e+01
ZP_0_1_0_0_1 2.3999999942383219e+01
ZN_0_1_0_0_1 0
Z_1_1_0_0_1 4.7999999942383141e+01
ZP_1_1_0_0_1 4.7999999942383141e+01
ZN_1_1_0_0_1 0
Z_0_0_0_2_1 24
ZP_0_0_0_2_1 0
ZN_0_0_0_2_1 24
Z_1_0_0_2_1 24
ZP_1_0_0_2_1 0
ZN_1_0_0_2_1 24
Z_0_1_0_2_1 24
ZP_0_1_0_2_1 0
ZN_0_1_0_2_1 24
Z_1_1_0_2_1 24
ZP_1_1_0_2_1 0
ZN_1_1_0_2_1 24
Z_0_0_0_1_2 24
ZP_0_0_0_1_2 24
ZN_0_0_0_1_2 0
Z_1_0_0_1_2 24
ZP_1_0_0_1_2 24
ZN_1_0_0_1_2 0
Z_0_1_0_1_2 24
ZP_0_1_0_1_2 24
ZN_0_1_0_1_2 0
Z_1_1_0_1_2 24
ZP_1_1_0_1_2 24
ZN_1_1_0_1_2 0
Z_0_0_0_3_2 24
ZP_0_0_0_3_2 0
ZN_0_0_0_3_2 24
Z_1_0_0_3_2 24
ZP_1_0_0_3_2 0
ZN_1_0_0_3_2 24
Z_0_1_0_3_2 24
ZP_0_1_0_3_2 0
ZN_0_1_0_3_2 24
Z_1_1_0_3_2 24
ZP_1_1_0_3_2 0
ZN_1_1_0_3_2 24
Z_0_0_0_2_3 24
ZP_0_0_0_2_3 24
ZN_0_0_0_2_3 0
Z_1_0_0_2_3 24
ZP_1_0_0_2_3 24
ZN_1_0_0_2_3 0
Z_0_1_0_2_3 24
ZP_0_1_0_2_3 24
ZN_0_1_0_2_3 0
Z_1_1_0_2_3 24
ZP_1_1_0_2_3 24
ZN_1_1_0_2_3 0
eta_0_0 8.6399999994238317e+02
eta_0_1 720
eta_0_2 720
eta_0_3 720
tmpp_var00 19
tmpp_var10 23
tmpp_var20 11
tmpp_var30 15
tmpp_var40 7
theta 3.4559999995966787e+03
AA0 7
BB0 2.2999999990397189e+01
min_var1_0_0 2.3999999942383219e+01
min_var1_0_1 24
min_var1_0_2 24
min_var1_0_3 0
